unsat
(error "line 2087 column 17: model is not available")
(error "line 2088 column 17: model is not available")
(error "line 2089 column 18: model is not available")
(error "line 2090 column 18: model is not available")
(error "line 2091 column 18: model is not available")
(error "line 2092 column 18: model is not available")
(error "line 2093 column 18: model is not available")
(error "line 2094 column 18: model is not available")
(error "line 2095 column 18: model is not available")
(error "line 2096 column 18: model is not available")
(error "line 2097 column 18: model is not available")
(error "line 2098 column 18: model is not available")
(error "line 2099 column 17: model is not available")
(error "line 2100 column 18: model is not available")
(error "line 2101 column 18: model is not available")
(error "line 2102 column 18: model is not available")
(error "line 2103 column 18: model is not available")
(error "line 2104 column 18: model is not available")
(error "line 2105 column 18: model is not available")
(error "line 2106 column 18: model is not available")
(error "line 2107 column 18: model is not available")
(error "line 2108 column 18: model is not available")
(error "line 2109 column 18: model is not available")
(error "line 2110 column 17: model is not available")
(error "line 2111 column 18: model is not available")
(error "line 2112 column 18: model is not available")
(error "line 2113 column 18: model is not available")
(error "line 2114 column 18: model is not available")
(error "line 2115 column 18: model is not available")
(error "line 2116 column 18: model is not available")
(error "line 2117 column 18: model is not available")
(error "line 2118 column 18: model is not available")
(error "line 2119 column 18: model is not available")
(error "line 2120 column 18: model is not available")
(error "line 2121 column 17: model is not available")
(error "line 2122 column 18: model is not available")
(error "line 2123 column 18: model is not available")
(error "line 2124 column 18: model is not available")
(error "line 2125 column 18: model is not available")
(error "line 2126 column 18: model is not available")
(error "line 2127 column 18: model is not available")
(error "line 2128 column 18: model is not available")
(error "line 2129 column 18: model is not available")
(error "line 2130 column 18: model is not available")
(error "line 2131 column 18: model is not available")
(error "line 2132 column 17: model is not available")
(error "line 2133 column 18: model is not available")
(error "line 2134 column 18: model is not available")
(error "line 2135 column 18: model is not available")
(error "line 2136 column 18: model is not available")
(error "line 2137 column 18: model is not available")
(error "line 2138 column 18: model is not available")
(error "line 2139 column 18: model is not available")
(error "line 2140 column 18: model is not available")
(error "line 2141 column 18: model is not available")
(error "line 2142 column 18: model is not available")
(error "line 2143 column 17: model is not available")
(error "line 2144 column 18: model is not available")
(error "line 2145 column 18: model is not available")
(error "line 2146 column 18: model is not available")
(error "line 2147 column 18: model is not available")
(error "line 2148 column 18: model is not available")
(error "line 2149 column 18: model is not available")
(error "line 2150 column 18: model is not available")
(error "line 2151 column 18: model is not available")
(error "line 2152 column 18: model is not available")
(error "line 2153 column 18: model is not available")
(error "line 2154 column 17: model is not available")
(error "line 2155 column 18: model is not available")
(error "line 2156 column 18: model is not available")
(error "line 2157 column 18: model is not available")
(error "line 2158 column 18: model is not available")
(error "line 2159 column 18: model is not available")
(error "line 2160 column 18: model is not available")
(error "line 2161 column 18: model is not available")
(error "line 2162 column 18: model is not available")
(error "line 2163 column 18: model is not available")
(error "line 2164 column 18: model is not available")
(error "line 2165 column 17: model is not available")
(error "line 2166 column 18: model is not available")
(error "line 2167 column 18: model is not available")
(error "line 2168 column 18: model is not available")
(error "line 2169 column 18: model is not available")
(error "line 2170 column 18: model is not available")
(error "line 2171 column 18: model is not available")
(error "line 2172 column 18: model is not available")
(error "line 2173 column 18: model is not available")
(error "line 2174 column 18: model is not available")
(error "line 2175 column 18: model is not available")
(error "line 2176 column 17: model is not available")
(error "line 2177 column 18: model is not available")
(error "line 2178 column 18: model is not available")
(error "line 2179 column 38: model is not available")
(error "line 2180 column 45: model is not available")
(error "line 2181 column 38: model is not available")
(error "line 2182 column 45: model is not available")
(error "line 2183 column 38: model is not available")
(error "line 2184 column 45: model is not available")
(error "line 2185 column 38: model is not available")
(error "line 2186 column 45: model is not available")
(error "line 2187 column 38: model is not available")
(error "line 2188 column 45: model is not available")
(error "line 2189 column 46: model is not available")
(error "line 2190 column 53: model is not available")
(error "line 2191 column 46: model is not available")
(error "line 2192 column 53: model is not available")
(error "line 2193 column 46: model is not available")
(error "line 2194 column 53: model is not available")
(error "line 2195 column 40: model is not available")
(error "line 2196 column 47: model is not available")
(error "line 2197 column 40: model is not available")
(error "line 2198 column 47: model is not available")
(error "line 2199 column 40: model is not available")
(error "line 2200 column 47: model is not available")
(error "line 2201 column 38: model is not available")
(error "line 2202 column 45: model is not available")
(error "line 2203 column 38: model is not available")
(error "line 2204 column 45: model is not available")
(error "line 2205 column 38: model is not available")
(error "line 2206 column 45: model is not available")
(error "line 2207 column 38: model is not available")
(error "line 2208 column 45: model is not available")
(error "line 2209 column 38: model is not available")
(error "line 2210 column 45: model is not available")
(error "line 2211 column 38: model is not available")
(error "line 2212 column 45: model is not available")
(error "line 2213 column 41: model is not available")
(error "line 2214 column 48: model is not available")
(error "line 2215 column 41: model is not available")
(error "line 2216 column 48: model is not available")
(error "line 2217 column 41: model is not available")
(error "line 2218 column 48: model is not available")
(error "line 2219 column 37: model is not available")
(error "line 2220 column 44: model is not available")
(error "line 2221 column 42: model is not available")
(error "line 2222 column 42: model is not available")
(error "line 2223 column 38: model is not available")
(error "line 2224 column 38: model is not available")
(error "line 2225 column 38: model is not available")
(error "line 2226 column 41: model is not available")
(error "line 2227 column 48: model is not available")
(error "line 2228 column 41: model is not available")
(error "line 2229 column 48: model is not available")
(error "line 2230 column 41: model is not available")
(error "line 2231 column 48: model is not available")
(error "line 2232 column 41: model is not available")
(error "line 2233 column 48: model is not available")
(error "line 2234 column 54: model is not available")
(error "line 2235 column 53: model is not available")
(error "line 2236 column 57: model is not available")
(error "line 2237 column 55: model is not available")
(error "line 2238 column 50: model is not available")
(error "line 2239 column 48: model is not available")
(error "line 2240 column 45: model is not available")
(error "line 2241 column 56: model is not available")
(error "line 2242 column 53: model is not available")
(error "line 2243 column 46: model is not available")
(error "line 2244 column 38: model is not available")
(error "line 2245 column 39: model is not available")
(error "line 2246 column 45: model is not available")
(error "line 2247 column 25: model is not available")
(error "line 2248 column 32: model is not available")
(error "line 2249 column 20: model is not available")
(error "line 2250 column 27: model is not available")
(error "line 2251 column 47: model is not available")
(error "line 2252 column 60: model is not available")
(error "line 2253 column 55: model is not available")
(error "line 2254 column 51: model is not available")
(error "line 2255 column 28: model is not available")
(error "line 2256 column 35: model is not available")
(error "line 2257 column 23: model is not available")
(error "line 2258 column 30: model is not available")
(error "line 2259 column 21: model is not available")
(error "line 2260 column 28: model is not available")
(error "line 2261 column 46: model is not available")
(error "line 2262 column 46: model is not available")
(error "line 2263 column 46: model is not available")
(error "line 2264 column 83: model is not available")
(error "line 2265 column 83: model is not available")
(error "line 2266 column 83: model is not available")
(error "line 2267 column 83: model is not available")
(error "line 2268 column 55: model is not available")
(error "line 2269 column 55: model is not available")
(error "line 2270 column 55: model is not available")
(error "line 2271 column 81: model is not available")
(error "line 2272 column 81: model is not available")
(error "line 2273 column 81: model is not available")
(error "line 2274 column 81: model is not available")
(error "line 2275 column 39: model is not available")
(error "line 2276 column 39: model is not available")
(error "line 2277 column 30: model is not available")
(error "line 2278 column 43: model is not available")
(error "line 2279 column 38: model is not available")
(error "line 2280 column 38: model is not available")
(error "line 2281 column 38: model is not available")
(error "line 2282 column 38: model is not available")
(error "line 2283 column 35: model is not available")
(error "line 2284 column 37: model is not available")
(error "line 2285 column 19: model is not available")
(error "line 2286 column 26: model is not available")
(error "line 2287 column 19: model is not available")
(error "line 2288 column 26: model is not available")
(error "line 2289 column 25: model is not available")
(error "line 2290 column 32: model is not available")
(error "line 2291 column 44: model is not available")
(error "line 2292 column 51: model is not available")
(error "line 2293 column 42: model is not available")
(error "line 2294 column 20: model is not available")
(error "line 2295 column 27: model is not available")
(error "line 2296 column 53: model is not available")
(error "line 2297 column 51: model is not available")
(error "line 2298 column 68: model is not available")
(error "line 2299 column 82: model is not available")
(error "line 2300 column 84: model is not available")
(error "line 2301 column 81: model is not available")
(error "line 2302 column 69: model is not available")
(error "line 2303 column 71: model is not available")
(error "line 2304 column 60: model is not available")
(error "line 2305 column 76: model is not available")
(error "line 2306 column 75: model is not available")
(error "line 2307 column 79: model is not available")
(error "line 2308 column 85: model is not available")
(error "line 2309 column 59: model is not available")
(error "line 2310 column 81: model is not available")
(error "line 2311 column 84: model is not available")
(error "line 2312 column 78: model is not available")
(error "line 2313 column 66: model is not available")
(error "line 2314 column 77: model is not available")
(error "line 2315 column 42: model is not available")
(error "line 2316 column 55: model is not available")
(error "line 2317 column 51: model is not available")
(error "line 2318 column 51: model is not available")
(error "line 2319 column 64: model is not available")
(error "line 2320 column 64: model is not available")
(error "line 2321 column 67: model is not available")
(error "line 2322 column 67: model is not available")
(error "line 2323 column 62: model is not available")
(error "line 2324 column 62: model is not available")
(error "line 2325 column 62: model is not available")
(error "line 2326 column 62: model is not available")
(error "line 2327 column 55: model is not available")
(error "line 2328 column 51: model is not available")
(error "line 2329 column 43: model is not available")
(error "line 2330 column 58: model is not available")
(error "line 2331 column 51: model is not available")
(error "line 2332 column 55: model is not available")
(error "line 2333 column 55: model is not available")
(error "line 2334 column 49: model is not available")
(error "line 2335 column 32: model is not available")
(error "line 2336 column 44: model is not available")
(error "line 2337 column 44: model is not available")
(error "line 2338 column 44: model is not available")
(error "line 2339 column 44: model is not available")
(error "line 2340 column 55: model is not available")
(error "line 2341 column 55: model is not available")
(error "line 2342 column 55: model is not available")
(error "line 2343 column 55: model is not available")
(error "line 2344 column 55: model is not available")
(error "line 2345 column 55: model is not available")
(error "line 2346 column 68: model is not available")
(error "line 2347 column 68: model is not available")
(error "line 2348 column 68: model is not available")
(error "line 2349 column 68: model is not available")
(error "line 2350 column 68: model is not available")
(error "line 2351 column 65: model is not available")
(error "line 2352 column 65: model is not available")
(error "line 2353 column 65: model is not available")
(error "line 2354 column 65: model is not available")
(error "line 2355 column 65: model is not available")
(error "line 2356 column 41: model is not available")
(error "line 2357 column 41: model is not available")
(error "line 2358 column 41: model is not available")
(error "line 2359 column 41: model is not available")
(error "line 2360 column 41: model is not available")
(error "line 2361 column 45: model is not available")
(error "line 2362 column 45: model is not available")
(error "line 2363 column 45: model is not available")
(error "line 2364 column 45: model is not available")
(error "line 2365 column 45: model is not available")
(error "line 2366 column 45: model is not available")
(error "line 2367 column 45: model is not available")
(error "line 2368 column 45: model is not available")
(error "line 2369 column 45: model is not available")
(error "line 2370 column 45: model is not available")
(error "line 2371 column 39: model is not available")
(error "line 2372 column 60: model is not available")
(error "line 2373 column 60: model is not available")
(error "line 2374 column 57: model is not available")
(error "line 2375 column 57: model is not available")
(error "line 2376 column 55: model is not available")
(error "line 2377 column 56: model is not available")
(error "line 2378 column 66: model is not available")
(error "line 2379 column 42: model is not available")
(error "line 2380 column 42: model is not available")
(error "line 2381 column 36: model is not available")
(error "line 2382 column 50: model is not available")
(error "line 2383 column 43: model is not available")
(error "line 2384 column 43: model is not available")
(error "line 2385 column 38: model is not available")
(error "line 2386 column 42: model is not available")
(error "line 2387 column 55: model is not available")
(error "line 2388 column 68: model is not available")
(error "line 2389 column 56: model is not available")
(error "line 2390 column 67: model is not available")
(error "line 2391 column 89: model is not available")
(error "line 2392 column 77: model is not available")
(error "line 2393 column 88: model is not available")
(error "line 2394 column 66: model is not available")
(error "line 2395 column 54: model is not available")
(error "line 2396 column 65: model is not available")
(error "line 2397 column 45: model is not available")
(error "line 2398 column 45: model is not available")
(error "line 2399 column 42: model is not available")
(error "line 2400 column 42: model is not available")
(error "line 2401 column 48: model is not available")
(error "line 2402 column 46: model is not available")
(error "line 2403 column 43: model is not available")
(error "line 2404 column 68: model is not available")
(error "line 2405 column 54: model is not available")
(error "line 2406 column 60: model is not available")
(error "line 2407 column 50: model is not available")
(error "line 2408 column 52: model is not available")
(error "line 2409 column 62: model is not available")
(error "line 2410 column 76: model is not available")
(error "line 2411 column 78: model is not available")
(error "line 2412 column 75: model is not available")
(error "line 2413 column 63: model is not available")
(error "line 2414 column 65: model is not available")
(error "line 2415 column 54: model is not available")
(error "line 2416 column 70: model is not available")
(error "line 2417 column 69: model is not available")
(error "line 2418 column 73: model is not available")
(error "line 2419 column 79: model is not available")
(error "line 2420 column 53: model is not available")
(error "line 2421 column 75: model is not available")
(error "line 2422 column 78: model is not available")
(error "line 2423 column 66: model is not available")
(error "line 2424 column 80: model is not available")
(error "line 2425 column 82: model is not available")
(error "line 2426 column 79: model is not available")
(error "line 2427 column 67: model is not available")
(error "line 2428 column 69: model is not available")
(error "line 2429 column 58: model is not available")
(error "line 2430 column 74: model is not available")
(error "line 2431 column 73: model is not available")
(error "line 2432 column 77: model is not available")
(error "line 2433 column 83: model is not available")
(error "line 2434 column 57: model is not available")
(error "line 2435 column 79: model is not available")
(error "line 2436 column 82: model is not available")
(error "line 2437 column 63: model is not available")
(error "line 2438 column 77: model is not available")
(error "line 2439 column 79: model is not available")
(error "line 2440 column 76: model is not available")
(error "line 2441 column 64: model is not available")
(error "line 2442 column 66: model is not available")
(error "line 2443 column 55: model is not available")
(error "line 2444 column 71: model is not available")
(error "line 2445 column 70: model is not available")
(error "line 2446 column 74: model is not available")
(error "line 2447 column 80: model is not available")
(error "line 2448 column 54: model is not available")
(error "line 2449 column 76: model is not available")
(error "line 2450 column 79: model is not available")
(error "line 2451 column 61: model is not available")
(error "line 2452 column 75: model is not available")
(error "line 2453 column 77: model is not available")
(error "line 2454 column 74: model is not available")
(error "line 2455 column 62: model is not available")
(error "line 2456 column 64: model is not available")
(error "line 2457 column 53: model is not available")
(error "line 2458 column 69: model is not available")
(error "line 2459 column 68: model is not available")
(error "line 2460 column 72: model is not available")
(error "line 2461 column 78: model is not available")
(error "line 2462 column 52: model is not available")
(error "line 2463 column 74: model is not available")
(error "line 2464 column 77: model is not available")
(error "line 2465 column 29: model is not available")
(error "line 2466 column 36: model is not available")
(error "line 2467 column 29: model is not available")
(error "line 2468 column 36: model is not available")
(error "line 2469 column 27: model is not available")
(error "line 2470 column 29: model is not available")
(error "line 2471 column 36: model is not available")
(error "line 2472 column 29: model is not available")
(error "line 2473 column 36: model is not available")
(error "line 2474 column 29: model is not available")
(error "line 2475 column 36: model is not available")
(error "line 2476 column 29: model is not available")
(error "line 2477 column 36: model is not available")
(error "line 2478 column 45: model is not available")
(error "line 2479 column 45: model is not available")
(error "line 2480 column 42: model is not available")
(error "line 2481 column 42: model is not available")
(error "line 2482 column 54: model is not available")
(error "line 2483 column 57: model is not available")
(error "line 2484 column 45: model is not available")
(error "line 2485 column 47: model is not available")
(error "line 2486 column 43: model is not available")
(error "line 2487 column 43: model is not available")
(error "line 2488 column 40: model is not available")
(error "line 2489 column 40: model is not available")
(error "line 2490 column 40: model is not available")
(error "line 2491 column 40: model is not available")
(error "line 2492 column 44: model is not available")
(error "line 2493 column 44: model is not available")
(error "line 2494 column 38: model is not available")
(error "line 2495 column 56: model is not available")
(error "line 2496 column 43: model is not available")
(error "line 2497 column 42: model is not available")
(error "line 2498 column 55: model is not available")
(error "line 2499 column 36: model is not available")
(error "line 2500 column 38: model is not available")
(error "line 2501 column 38: model is not available")
(error "line 2502 column 49: model is not available")
(error "line 2503 column 49: model is not available")
(error "line 2504 column 42: model is not available")
(error "line 2505 column 42: model is not available")
(error "line 2506 column 45: model is not available")
(error "line 2507 column 45: model is not available")
(error "line 2508 column 47: model is not available")
(error "line 2509 column 47: model is not available")
(error "line 2510 column 40: model is not available")
(error "line 2511 column 38: model is not available")
(error "line 2512 column 53: model is not available")
(error "line 2513 column 53: model is not available")
(error "line 2514 column 53: model is not available")
(error "line 2515 column 53: model is not available")
(error "line 2516 column 52: model is not available")
(error "line 2517 column 51: model is not available")
(error "line 2518 column 51: model is not available")
(error "line 2519 column 52: model is not available")
(error "line 2520 column 50: model is not available")
(error "line 2521 column 51: model is not available")
(error "line 2522 column 50: model is not available")
(error "line 2523 column 51: model is not available")
(error "line 2524 column 50: model is not available")
(error "line 2525 column 52: model is not available")
(error "line 2526 column 52: model is not available")
(error "line 2527 column 51: model is not available")
(error "line 2528 column 52: model is not available")
(error "line 2529 column 50: model is not available")
(error "line 2530 column 55: model is not available")
(error "line 2531 column 56: model is not available")
(error "line 2532 column 56: model is not available")
(error "line 2533 column 55: model is not available")
(error "line 2534 column 56: model is not available")
(error "line 2535 column 38: model is not available")
(error "line 2536 column 45: model is not available")
(error "line 2537 column 48: model is not available")
(error "line 2538 column 51: model is not available")
(error "line 2539 column 43: model is not available")
(error "line 2540 column 40: model is not available")
(error "line 2541 column 44: model is not available")
(error "line 2542 column 37: model is not available")
(error "line 2543 column 37: model is not available")
(error "line 2544 column 37: model is not available")
(error "line 2545 column 37: model is not available")
(error "line 2546 column 37: model is not available")
(error "line 2547 column 37: model is not available")
(error "line 2548 column 37: model is not available")
(error "line 2549 column 40: model is not available")
(error "line 2550 column 47: model is not available")
(error "line 2551 column 28: model is not available")
(error "line 2552 column 35: model is not available")
(error "line 2553 column 39: model is not available")
(error "line 2554 column 46: model is not available")
(error "line 2555 column 38: model is not available")
(error "line 2556 column 38: model is not available")
(error "line 2557 column 71: model is not available")
(error "line 2558 column 71: model is not available")
(error "line 2559 column 33: model is not available")
(error "line 2560 column 32: model is not available")
(error "line 2561 column 39: model is not available")
(error "line 2562 column 37: model is not available")
(error "line 2563 column 46: model is not available")
(error "line 2564 column 46: model is not available")
(error "line 2565 column 54: model is not available")
(error "line 2566 column 54: model is not available")
(error "line 2567 column 54: model is not available")
(error "line 2568 column 40: model is not available")
(error "line 2569 column 40: model is not available")
(error "line 2570 column 41: model is not available")
(error "line 2571 column 41: model is not available")
(error "line 2572 column 50: model is not available")
(error "line 2573 column 50: model is not available")
(error "line 2574 column 43: model is not available")
(error "line 2575 column 43: model is not available")
(error "line 2576 column 44: model is not available")
(error "line 2577 column 44: model is not available")
(error "line 2578 column 44: model is not available")
(error "line 2579 column 44: model is not available")
(error "line 2580 column 44: model is not available")
(error "line 2581 column 44: model is not available")
(error "line 2582 column 44: model is not available")
(error "line 2583 column 44: model is not available")
(error "line 2584 column 44: model is not available")
(error "line 2585 column 41: model is not available")
(error "line 2586 column 44: model is not available")
(error "line 2587 column 50: model is not available")
(error "line 2588 column 53: model is not available")
(error "line 2589 column 52: model is not available")
(error "line 2590 column 29: model is not available")
(error "line 2591 column 36: model is not available")
(error "line 2592 column 43: model is not available")
(error "line 2593 column 39: model is not available")
(error "line 2594 column 36: model is not available")
(error "line 2595 column 43: model is not available")
(error "line 2596 column 50: model is not available")
(error "line 2597 column 57: model is not available")
(error "line 2598 column 52: model is not available")
(error "line 2599 column 59: model is not available")
(error "line 2600 column 49: model is not available")
(error "line 2601 column 56: model is not available")
(error "line 2602 column 37: model is not available")
(error "line 2603 column 44: model is not available")
(error "line 2604 column 39: model is not available")
(error "line 2605 column 46: model is not available")
(error "line 2606 column 28: model is not available")
(error "line 2607 column 35: model is not available")
(error "line 2608 column 44: model is not available")
(error "line 2609 column 51: model is not available")
(error "line 2610 column 43: model is not available")
(error "line 2611 column 50: model is not available")
(error "line 2612 column 47: model is not available")
(error "line 2613 column 54: model is not available")
(error "line 2614 column 53: model is not available")
(error "line 2615 column 60: model is not available")
(error "line 2616 column 27: model is not available")
(error "line 2617 column 34: model is not available")
(error "line 2618 column 49: model is not available")
(error "line 2619 column 56: model is not available")
(error "line 2620 column 52: model is not available")
(error "line 2621 column 59: model is not available")
(error "line 2622 column 46: model is not available")
(error "line 2623 column 39: model is not available")
(error "line 2624 column 45: model is not available")
(error "line 2625 column 30: model is not available")
(error "line 2626 column 50: model is not available")
(error "line 2627 column 34: model is not available")
(error "line 2628 column 41: model is not available")
(error "line 2629 column 46: model is not available")
(error "line 2630 column 52: model is not available")
(error "line 2631 column 61: model is not available")
(error "line 2632 column 54: model is not available")
(error "line 2633 column 50: model is not available")
(error "line 2634 column 45: model is not available")
(error "line 2635 column 45: model is not available")
(error "line 2636 column 57: model is not available")
(error "line 2637 column 57: model is not available")
(error "line 2638 column 40: model is not available")
(error "line 2639 column 40: model is not available")
(error "line 2640 column 42: model is not available")
(error "line 2641 column 50: model is not available")
(error "line 2642 column 53: model is not available")
(error "line 2643 column 50: model is not available")
(error "line 2644 column 50: model is not available")
(error "line 2645 column 49: model is not available")
(error "line 2646 column 45: model is not available")
(error "line 2647 column 50: model is not available")
(error "line 2648 column 46: model is not available")
(error "line 2649 column 54: model is not available")
(error "line 2651 column 10: model is not available")
(:added-eqs                   234
 :arith-bound-propagations-lp 28
 :arith-lower                 49
 :arith-make-feasible         1
 :arith-max-columns           156
 :arith-max-rows              91
 :arith-upper                 22
 :binary-propagations         27
 :bv-bit2core                 1160
 :conflicts                   1
 :eliminated-applications     5
 :eliminated-vars             10
 :max-memory                  4.58
 :memory                      3.19
 :mk-bool-var                 1785
 :mk-clause                   144
 :num-allocs                  1247167
 :num-checks                  1
 :propagations                27
 :rlimit-count                37637
 :time                        0.01
 :total-time                  0.02)

real	0m0.020s
user	0m0.020s
sys	0m0.000s
State: RE Run_time: 0.022534847259521484